language ESSENCE' 1.0

letting hosts_Occurrence be [false, true, true, true, true; int(1..5)]
letting sched_ExplicitR9_Function1D be
        [[2, 2, 3, 4, 5; int(1..5)], [3, 2, 3, 4, 5; int(1..5)], [4, 2, 3, 4, 5; int(1..5)], [5, 2, 3, 4, 5; int(1..5)];
             int(1..4)]
$ Visualisation for sched_ExplicitR9_Function1D
$ 2 2 3 4 5
$ 3 2 3 4 5
$ 4 2 3 4 5
$ 5 2 3 4 5

